NAME : in_house_7_21
TYPE : TSP
DIMENSION : 7
EDGE_WEIGHT_TYPE : EXPLICIT
EDGE_WEIGHT_FORMAT : UPPER_ROW
COMMENT : INVERSION_SHIFT=5
EDGE_WEIGHT_SECTION
40
2
23
20
4
32
45
42
32
25
29
26
41
37
20
25
44
44
1
8
30
